p cnf 95 329
1 2 -3 0
-1 -2 -3 0
1 -2 3 0
-1 2 3 0
5 -6 -7 0
-5 6 -7 0
5 6 7 0
-5 -6 7 0
-6 4 -8 0
6 -4 -8 0
-6 -4 8 0
6 4 8 0
8 9 -10 0
-8 -9 -10 0
8 -9 10 0
-8 9 10 0
-2 10 -11 0
2 -10 -11 0
-2 -10 11 0
2 10 11 0
7 -11 -12 0
-7 11 -12 0
7 11 12 0
-7 -11 12 0
-13 -4 0
-13 -12 0
4 12 13 0
3 13 -14 0
-3 -13 -14 0
3 -13 14 0
-3 13 14 0
-16 17 -18 0
16 -17 -18 0
-16 -17 18 0
16 17 18 0
-19 15 0
-19 18 0
-15 -18 19 0
14 -19 -20 0
-14 19 -20 0
14 19 20 0
-14 -19 20 0
9 6 -21 0
-9 -6 -21 0
9 -6 21 0
-9 6 21 0
-22 -8 0
-22 21 0
8 -21 22 0
23 8 0
23 22 0
-8 -22 -23 0
-26 24 0
-26 -25 0
-24 25 26 0
27 -23 0
27 26 0
23 -26 -27 0
25 26 -28 0
-25 -26 -28 0
25 -26 28 0
-25 26 28 0
-5 -28 -29 0
5 28 -29 0
-5 28 29 0
5 -28 29 0
30 -26 -31 0
-30 26 -31 0
30 26 31 0
-30 -26 31 0
32 -25 0
32 26 0
25 -26 -32 0
-33 -15 0
-33 -32 0
15 32 33 0
-25 -33 -34 0
25 33 -34 0
-25 33 34 0
25 -33 34 0
35 8 0
35 -5 0
-8 5 -35 0
36 24 0
36 2 0
-24 -2 -36 0
37 -35 0
37 -36 0
35 36 -37 0
-38 -34 0
-38 37 0
34 -37 38 0
-39 -15 0
-39 38 0
15 -38 39 0
-40 -37 0
-40 1 0
37 -1 40 0
39 -40 -41 0
-39 40 -41 0
39 40 41 0
-39 -40 41 0
42 -31 0
42 41 0
31 -41 -42 0
-30 4 -43 0
30 -4 -43 0
-30 -4 43 0
30 4 43 0
1 -32 -44 0
-1 32 -44 0
1 32 44 0
-1 -32 44 0
45 44 0
45 -5 0
-44 5 -45 0
-46 43 0
-46 45 0
-43 -45 46 0
-47 42 0
-47 46 0
-42 -46 47 0
48 -29 0
48 47 0
29 -47 -48 0
-49 27 0
-49 -48 0
-27 48 49 0
-50 -20 0
-50 -49 0
20 49 50 0
-52 9 0
-52 -11 0
-9 11 52 0
53 51 0
53 52 0
-51 -52 -53 0
54 -44 0
54 41 0
44 -41 -54 0
55 -53 0
55 -54 0
53 54 -55 0
56 18 0
56 -31 0
-18 31 -56 0
57 -23 0
57 34 0
23 -34 -57 0
56 -57 -58 0
-56 57 -58 0
56 57 58 0
-56 -57 58 0
-8 -35 -59 0
8 35 -59 0
-8 35 59 0
8 -35 59 0
60 40 0
60 32 0
-40 -32 -60 0
61 -59 0
61 60 0
59 -60 -61 0
-58 -61 -62 0
58 61 -62 0
-58 61 62 0
58 -61 62 0
-26 51 -63 0
26 -51 -63 0
-26 -51 63 0
26 51 63 0
-64 -62 0
-64 -63 0
62 63 64 0
-55 -64 -65 0
55 64 -65 0
-55 64 65 0
55 -64 65 0
66 15 0
66 -1 0
-15 1 -66 0
-67 -66 0
-67 25 0
66 -25 67 0
67 -35 -68 0
-67 35 -68 0
67 35 68 0
-67 -35 68 0
69 65 0
69 -68 0
-65 68 -69 0
70 50 0
70 -69 0
-50 69 -70 0
41 21 -71 0
-41 -21 -71 0
41 -21 71 0
-41 21 71 0
72 24 -73 0
-72 -24 -73 0
72 -24 73 0
-72 24 73 0
74 11 0
74 52 0
-11 -52 -74 0
75 73 0
75 -74 0
-73 74 -75 0
71 75 -76 0
-71 -75 -76 0
71 -75 76 0
-71 75 76 0
77 -12 0
77 -22 0
12 22 -77 0
78 60 0
78 24 0
-60 -24 -78 0
-79 -77 0
-79 78 0
77 -78 79 0
32 -16 -80 0
-32 16 -80 0
32 16 80 0
-32 -16 80 0
-81 79 0
-81 -80 0
-79 80 81 0
15 -5 -82 0
-15 5 -82 0
15 5 82 0
-15 -5 82 0
-83 -81 0
-83 -82 0
81 82 83 0
84 76 0
84 -83 0
-76 83 -84 0
85 -17 0
85 -31 0
17 31 -85 0
86 -21 0
86 25 0
21 -25 -86 0
87 85 0
87 -86 0
-85 86 -87 0
-26 10 -88 0
26 -10 -88 0
-26 -10 88 0
26 10 88 0
-89 -87 0
-89 -88 0
87 88 89 0
90 37 0
90 35 0
-37 -35 -90 0
-91 89 0
-91 -90 0
-89 90 91 0
-92 4 0
-92 -26 0
-4 26 92 0
-93 -91 0
-93 -92 0
91 92 93 0
-84 93 -94 0
84 -93 -94 0
-84 -93 94 0
84 93 94 0
95 70 0
95 94 0
-70 -94 -95 0
89 -43 68 -70 22 0
57 90 89 -81 41 0
-63 79 -23 30 0
-35 -10 -44 55 -76 -63 0
18 3 79 0
-43 -48 0
88 -45 69 73 -55 0
-56 10 1 -70 0
93 75 7 80 0
-23 22 32 27 0
5 -9 -78 -36 0
-9 74 -20 -72 90 -41 0
55 91 -85 0
-18 -40 65 -55 0
-41 -67 0
20 -83 86 62 0
72 -70 -95 54 -3 -58 0
82 -15 -18 64 0
4 -16 -85 30 -90 87 0
-8 -70 79 20 0
-54 -63 61 -78 -19 32 0
29 39 0
-66 -73 92 -19 51 0
-83 -82 51 26 -85 -58 0
18 -63 -72 0
-43 -91 0
-81 5 25 0
-95 40 -19 84 0
69 -39 -86 0
-13 91 -70 -32 0
-17 -88 -10 -45 0
37 54 3 -24 0
-82 1 0
-39 -7 10 0
81 43 83 0
-40 -41 90 -77 80 0
-19 -11 -66 -94 0
84 -60 -87 -7 -54 -44 0
54 -46 -66 32 56 0
-10 -5 34 -32 0
-18 -76 -69 28 -27 75 0
-6 -50 -48 0
-40 80 -65 64 0
-52 -89 -27 5 0
10 66 60 93 -11 0
-53 73 32 35 0
58 14 -63 45 -43 64 0
-56 68 -28 -40 16 10 0
-65 49 -71 -32 0
13 -4 66 0
25 64 -75 57 0
-57 9 6 -19 -30 31 0
-50 20 46 0
45 -37 87 80 0
-22 -73 -1 -57 -25 0
95 0
